db/data/167372684510338164691317531857758215349.z3.out
-------------------
2500.236717159
